Traveling Salesman Problem/TSP_generados/Aleatorio1621103464_14.tsp
NAME: Aleatorio1621103464_14.tsp
COMMENT: Randomly generated scenario
TYPE: TSP
DIMENSION: 14
EDGE_WEIGHT_TYPE: ATT
NODE_COORD_SECTION
1 19.5 32.56
2 24.84 11.82
3 11.47 17.33
4 25.49 31.2
5 29.24 32.96
6 31.66 18.46
7 1.73 30.85
8 47.54 16.46
9 49.07 14.57
10 2.6 24.23
11 12.15 43.37
12 15.24 3.22
13 36.19 29.74
14 48.68 39.08
