Traveling Salesman Problem/TSP_generados/Aleatorio1621103464_14.opt.tour
NAME: Aleatorio1621103464_14.opt.tour
COMMENT: Optimal solution for Aleatorio1621103464_14 (160.74810185998143)
TYPE: TOUR
DIMENSION: 14
TOUR_SECTION
1 4 5 13 14 8 9 6 2 12 3 10 7 11
-1
EOF
